! Raw Palace field extraction; port order: U1.P1, U3.F3, U1.P2, U3.G3
# Hz S RI R 50
400000000 -2.55321177753143e-01 -1.71394326206978e-01 5.86790375011452e-01 -6.80771594359907e-01 2.14768761642664e-01 1.21669137675145e-01 1.34505510792032e-01 3.15100019332645e-03
5.86790377493598e-01 -6.80771596921732e-01 -2.61299405425792e-01 -1.64605322590441e-01 1.33141211418352e-01 -1.11261251657527e-03 2.09466680540901e-01 1.29337605735851e-01
2.14768762302907e-01 1.21669141041873e-01 1.33141227842046e-01 -1.11259404947692e-03 -2.64108300265986e-01 -1.50706674752729e-01 5.70026537829585e-01 -6.96477488811178e-01
1.34505440585862e-01 3.15100555076533e-03 2.09466627577124e-01 1.29337625967659e-01 5.70026535447161e-01 -6.96477485402740e-01 -2.54188943424626e-01 -1.66367176528561e-01
