! Raw Palace field extraction; port order: U1.OUT, U2.IN
# Hz S RI R 50
100000000 -3.22945292809141e-04 1.87819513147552e-02 9.98381826018028e-01 -3.19707088876714e-02 9.98381864031556e-01 -3.19707664351237e-02 -3.22921433694538e-04 1.87808737000786e-02
400000000 8.28747083636656e-03 7.41949797186412e-02 9.87747006536723e-01 -1.26948172333206e-01 9.87747004815130e-01 -1.26948109167536e-01 8.28821381054777e-03 7.41903873959003e-02
1000000000 5.47029861642628e-02 1.72939967209254e-01 9.32336964715055e-01 -3.05114399837182e-01 9.32336941742855e-01 -3.05114335762458e-01 5.47071671471846e-02 1.72927282164539e-01
2000000000 1.87660138866168e-01 2.72177850894750e-01 7.68408892548110e-01 -5.39200114761225e-01 7.68408702352842e-01 -5.39200006981876e-01 1.87669580615998e-01 2.72146899827496e-01
5000000000 4.90192693214012e-01 1.19141343157822e-01 1.83577190164802e-01 -8.23968839060021e-01 1.83576267508955e-01 -8.23968554613561e-01 4.90154997929580e-01 1.19171767967614e-01
