! Raw Palace field extraction; port order: U1.OUT, U2.IN
# Hz S RI R 50
100000000 -4.66764206605848e-03 1.04354378716647e-02 9.94542878662061e-01 -2.88551365451723e-02 9.94542889921932e-01 -2.88551324419362e-02 -4.66755177540782e-03 1.04649387040517e-02
400000000 -5.33664689569682e-04 4.13430934531547e-02 9.86896415441412e-01 -1.14958279391501e-01 9.86896426130363e-01 -1.14958286238394e-01 -5.32740794900512e-04 4.14600317046525e-02
1000000000 2.31863055181704e-02 9.76684331416780e-02 9.46728688118016e-01 -2.81413181212691e-01 9.46728711714642e-01 -2.81413200111671e-01 2.31786273150678e-02 9.79431434386396e-02
2000000000 9.59775330502205e-02 1.58892384718260e-01 8.16892473967274e-01 -5.25222886018788e-01 8.16892506573457e-01 -5.25222940620807e-01 9.57937941465776e-02 1.59400584670046e-01
5000000000 2.63872499716068e-01 5.72595283355703e-02 1.80459020167417e-01 -9.15104711025482e-01 1.80458987565801e-01 -9.15104817937296e-01 2.62176283745680e-01 6.20876552135625e-02
