! Raw Palace field extraction; port order: U1.OUT, U2.IN
# Hz S RI R 50
100000000 -3.65430620420884e-04 1.78296657142897e-02 9.98408885860633e-01 -3.15372497546553e-02 9.98408905123065e-01 -3.15372605380799e-02 -3.65417467353663e-04 1.78300233002241e-02
400000000 7.66609785276222e-03 7.04606431364321e-02 9.88218306846417e-01 -1.25285769735610e-01 9.88218332120656e-01 -1.25285778169676e-01 7.66633349813555e-03 7.04619656287015e-02
1000000000 5.12002265130427e-02 1.64584275084255e-01 9.35025705317566e-01 -3.01917550772553e-01 9.35025635883038e-01 -3.01917616540917e-01 5.12014214491544e-02 1.64587293188303e-01
2000000000 1.77065665305147e-01 2.60462535914024e-01 7.75820979444609e-01 -5.37684671277520e-01 7.75820968075658e-01 -5.37684709204311e-01 1.77064189276883e-01 2.60469802058839e-01
5000000000 4.65552160198339e-01 1.12644274105825e-01 1.84280576622151e-01 -8.37989792213942e-01 1.84280730512389e-01 -8.37989891092050e-01 4.65502999315591e-01 1.12889651382995e-01
