! Raw Palace field extraction; port order: U1.OUT, U2.IN
# Hz S RI R 50
100000000 -1.19341540054784e-03 1.71679345104713e-02 9.97636671441860e-01 -3.10415923515451e-02 9.97636783681575e-01 -3.10418192503464e-02 -1.19368322029969e-03 1.71618571151465e-02
400000000 6.40500373405880e-03 6.78768919410481e-02 9.87835799281203e-01 -1.23362613031216e-01 9.87835705732877e-01 -1.23362758125696e-01 6.40275671326725e-03 6.78521720003724e-02
1000000000 4.77826873972496e-02 1.58930054850861e-01 9.36589469371199e-01 -2.97870152968477e-01 9.36589456417813e-01 -2.97870047398565e-01 4.77683987011023e-02 1.58871402898779e-01
2000000000 1.68563282452153e-01 2.53323039494067e-01 7.81799838450936e-01 -5.33448478157948e-01 7.81799834470526e-01 -5.33448497747131e-01 1.68509602378790e-01 2.53230495856836e-01
5000000000 4.54416567770208e-01 1.14016137357687e-01 1.91937941139611e-01 -8.40915243237872e-01 1.91937968220367e-01 -8.40914783804465e-01 4.54255173758788e-01 1.14242154688397e-01
