! Raw Palace field extraction; port order: U1.P1, U3.F3, U1.P2, U3.G3
# Hz S RI R 50
400000000 -2.05025738287996e-01 -1.45133088261320e-01 6.13030752779218e-01 -6.88259290638185e-01 1.99772813523930e-01 1.28614298858571e-01 1.12035152971375e-01 1.22128879542082e-02
6.13030758145621e-01 -6.88259291757262e-01 -2.13491763459514e-01 -1.35706630262985e-01 1.10813529483103e-01 7.64690668523164e-03 1.92864598507569e-01 1.37435172080954e-01
1.99772761614783e-01 1.28614312288527e-01 1.10813475891603e-01 7.64692272942913e-03 -2.12738302210643e-01 -1.24047076916219e-01 5.97335268670957e-01 -7.03786088710579e-01
1.12035082473978e-01 1.22128820199938e-02 1.92864530399441e-01 1.37435170803620e-01 5.97335278166480e-01 -7.03786085861375e-01 -2.03148027732611e-01 -1.38731598321317e-01
