! Raw Palace field extraction; port order: U1.OUT, U2.IN, U3.OUT, U4.IN
# Hz S RI R 50
100000000 -1.37143512931026e-04 -2.52460343922861e-04 9.99739660617723e-01 -1.57688512885450e-02 5.04682828668641e-06 3.30784101858489e-04 -2.05611370095840e-06 -1.12327031689255e-04
9.99739660690639e-01 -1.57688511829415e-02 -1.41258590050793e-04 -2.52321513007380e-04 -2.02591632520876e-06 -1.12328942194991e-04 5.13163852935380e-06 3.30783616559196e-04
5.04494620968471e-06 3.30783372442768e-04 -2.02766339732561e-06 -1.12328591246814e-04 -1.48835010332346e-04 -6.07741901444373e-04 9.99728545777147e-01 -1.61168762516643e-02
-2.05776921175305e-06 -1.12326035387988e-04 5.12978292338211e-06 3.30783086214882e-04 9.99728545903258e-01 -1.61168759870246e-02 -1.52048838639558e-04 -6.07673443870008e-04
400000000 -5.70180525703046e-04 -9.87589749923917e-04 9.97459375855759e-01 -6.30099038677332e-02 8.13522638677136e-05 1.32028418538809e-03 -3.22091617542530e-05 -4.48430863119653e-04
9.97459375773362e-01 -6.30099037265810e-02 -6.35788023375134e-04 -9.82209817651809e-04 -3.17298191124456e-05 -4.48497924784201e-04 8.27091616196180e-05 1.32023262884534e-03
8.13552175929766e-05 1.32028625061425e-03 -3.17266725399961e-05 -4.48495902022837e-04 -6.92179675524529e-04 -2.40183405617030e-03 9.97346500719361e-01 -6.43969171712361e-02
-3.22056485872418e-05 -4.48429388642607e-04 8.27118001169396e-05 1.32023513006572e-03 9.97346500564109e-01 -6.43969172193313e-02 -7.43431316535716e-04 -2.39820100902999e-03
1000000000 -1.53050020351834e-03 -2.38756350311247e-03 9.86181987045838e-01 -1.56842937519913e-01 5.07194961249303e-04 3.26386625188377e-03 -1.99323245444228e-04 -1.10546467981948e-03
9.86181986872282e-01 -1.56842937446003e-01 -1.93428665719263e-03 -2.31490700596850e-03 -1.96412399501106e-04 -1.10627920990831e-03 5.15676595828392e-04 3.26304205006354e-03
5.07199619646154e-04 3.26386635079209e-03 -1.96408462379532e-04 -1.10627695537996e-03 -2.20524205438101e-03 -5.85045063071750e-03 9.85561372903783e-01 -1.60259544049705e-01
-1.99319290656241e-04 -1.10546243192909e-03 5.15681175011825e-04 3.26304215957071e-03 9.85561372913775e-01 -1.60259544055126e-01 -2.52047928765632e-03 -5.79639601227817e-03
2000000000 -3.45131288152119e-03 -4.66829832058202e-03 9.47807312509514e-01 -3.09334926800275e-01 2.00076650300043e-03 6.27353112112785e-03 -7.77882867728778e-04 -2.09550099254176e-03
9.47807312789536e-01 -3.09334926799778e-01 -4.98626977894591e-03 -4.12822832566748e-03 -7.67240159677888e-04 -2.10128527586113e-03 2.03469903567345e-03 6.26666956983295e-03
2.00076611766347e-03 6.27353131098884e-03 -7.67240434461231e-04 -2.10128498719559e-03 -5.96232948816691e-03 -1.11335523716634e-02 9.45475052009740e-01 -3.15850968898077e-01
-7.77883169125938e-04 -2.09550070216026e-03 2.03469878291540e-03 6.26666975619366e-03 9.45475052217055e-01 -3.15850968817469e-01 -7.15533626179053e-03 -1.07185148082893e-02
5000000000 -1.42721156766091e-02 -1.23020246243218e-02 6.98312376061147e-01 -7.03730241278697e-01 1.13030650328214e-02 1.15296071407542e-02 -4.09730194131492e-03 -3.45829593434161e-03
6.98312374908503e-01 -7.03730241999323e-01 -2.08510386639552e-02 -5.27027831423716e-03 -4.06799727079539e-03 -3.52947755293261e-03 1.15015980759815e-02 1.14049236099766e-02
1.13030650773571e-02 1.15296070760602e-02 -4.06799714388423e-03 -3.52947746045592e-03 -2.66224108124750e-02 -2.17176841920514e-02 6.85659205678039e-01 -7.15169550228822e-01
-4.09730206468241e-03 -3.45829599993187e-03 1.15015981381816e-02 1.14049235467991e-02 6.85659203228677e-01 -7.15169552033149e-01 -3.15235062471535e-02 -1.63721767748028e-02
