! Raw Palace field extraction; port order: U1.OUT, U2.IN
# Hz S RI R 50
100000000 -3.41850205544866e-04 1.83441293700153e-02 9.98391401365646e-01 -3.18490844807403e-02 9.98391402864162e-01 -3.18490829678705e-02 -3.41825681457385e-04 1.83438117094489e-02
400000000 8.01915410580962e-03 7.24712084188699e-02 9.87923438071448e-01 -1.26487937556997e-01 9.87923438456017e-01 -1.26487974949320e-01 8.01955519799593e-03 7.24699076872118e-02
1000000000 5.31934042076516e-02 1.69023980250930e-01 9.33347642875426e-01 -3.04356123952297e-01 9.33347620051591e-01 -3.04356126474302e-01 5.31957942034782e-02 1.69019900535809e-01
2000000000 1.82999312993103e-01 2.66340686519229e-01 7.71092669820591e-01 -5.39688915096206e-01 7.71092636130426e-01 -5.39688923043161e-01 1.83007680196926e-01 2.66327871828449e-01
5000000000 4.76615011565804e-01 1.13844158249358e-01 1.80694284057332e-01 -8.32587140324700e-01 1.80694242365446e-01 -8.32587223585863e-01 4.76629466444569e-01 1.13740557589588e-01
